NAME : berlin52-R-3-1-c.9577.tour
COMMENT : Length = 9577
COMMENT : Found by LKH-3 [Keld Helsgaun] Tue Jul 30 13:14:23 2024
TYPE : TOUR
DIMENSION : 52
TOUR_SECTION
1
32
22
18
31
21
42
7
2
29
16
44
34
37
48
6
15
10
43
4
25
51
11
52
14
13
27
47
26
28
12
33
9
8
41
19
45
3
17
30
23
20
50
46
24
5
38
40
39
36
35
49
-1
EOF
